Gurobi 9.1.2 (linux64) logging started Fri Mar  4 15:04:20 2022

Gurobi Optimizer version 9.1.2 build v9.1.2rc0 (linux64)
Thread count: 12 physical cores, 24 logical processors, using up to 1 threads
Optimize a model with 27020 rows, 27020 columns and 330555 nonzeros
Model fingerprint: 0x4bbfbf8a
Model has 277801 quadratic objective terms
Variable types: 26960 continuous, 60 integer (60 binary)
Coefficient statistics:
  Matrix range     [2e-04, 1e+00]
  Objective range  [2e-23, 2e-03]
  QObjective range [1e-06, 3e-05]
  Bounds range     [1e+00, 1e+00]
  RHS range        [2e+00, 2e+00]
Found heuristic solution: objective 23.9888052
Presolve removed 5241 rows and 5241 columns
Presolve time: 1.20s
Presolved: 21779 rows, 21779 columns, 304577 nonzeros
Presolved model has 222383 quadratic objective terms
Variable types: 21719 continuous, 60 integer (60 binary)
Warning: Markowitz tolerance tightened to 0.125
Warning: Markowitz tolerance tightened to 0.25
Warning: Markowitz tolerance tightened to 0.5

Root simplex log...

Iteration    Objective       Primal Inf.    Dual Inf.      Time
    4957    2.3988910e+01   0.000000e+00   6.393958e+05      6s
    6375    2.1873581e+01   0.000000e+00   3.233629e+04     10s
    7591    2.1873683e+01   0.000000e+00   7.531235e+04     15s
    8539    1.9871733e+01   0.000000e+00   6.507940e+02     21s
    9219    1.8329495e+01   0.000000e+00   9.223247e+02     25s
   10035    1.8329495e+01   0.000000e+00   5.777324e+02     30s
   10851    1.8329495e+01   0.000000e+00   6.542325e+02     36s
   11395    1.8329495e+01   0.000000e+00   6.240512e+02     40s
   12075    1.8329495e+01   0.000000e+00   5.893223e+02     45s
   12619    1.8329495e+01   0.000000e+00   7.573679e+02     50s
   13163    1.8329495e+01   0.000000e+00   8.993004e+02     56s
   13571    1.8329495e+01   0.000000e+00   1.295186e+03     61s
   13979    1.2358907e+01   0.000000e+00   3.199203e+02     65s
   14387    1.2358538e+01   0.000000e+00   4.149393e+02     70s
   14795    1.2358500e+01   0.000000e+00   6.124879e+02     76s
   15067    1.2358501e+01   0.000000e+00   6.434363e+02     80s
   15475    1.2358478e+01   0.000000e+00   8.935003e+02     86s
   15747    1.2358442e+01   0.000000e+00   1.217808e+03     90s
   16155    1.2358429e+01   0.000000e+00   1.431322e+03     96s
   16427    1.2359022e+01   0.000000e+00   2.745306e+03    101s
   16699    1.2358795e+01   0.000000e+00   1.991036e+03    105s
   17107    8.2459613e+00   0.000000e+00   1.392995e+02    112s
   17379    8.2459613e+00   0.000000e+00   3.597073e+02    115s
   17787    8.2459613e+00   0.000000e+00   7.046115e+02    121s
   18195    8.2459613e+00   0.000000e+00   8.735497e+02    127s
   18467    8.2459613e+00   0.000000e+00   9.489762e+02    131s
   18875    8.2459613e+00   0.000000e+00   1.067672e+03    137s
   19147    8.2459613e+00   0.000000e+00   8.740756e+02    141s
   19555    8.2459613e+00   0.000000e+00   1.043322e+03    147s
   19827    8.2459613e+00   0.000000e+00   9.875468e+02    151s
   20099    8.2459613e+00   0.000000e+00   1.511219e+03    156s
   20371    8.2459613e+00   0.000000e+00   1.102532e+03    160s
   20779    8.2459613e+00   0.000000e+00   1.041116e+03    167s
   21051    8.2459613e+00   0.000000e+00   9.824862e+02    172s
   21323    8.2459613e+00   0.000000e+00   1.450377e+03    177s
   21595    8.2459613e+00   0.000000e+00   1.945573e+03    181s
   21867    8.2459613e+00   0.000000e+00   9.392318e+02    186s
   22139    8.2459613e+00   0.000000e+00   1.135913e+03    191s
   22411    8.2459613e+00   0.000000e+00   1.264875e+03    197s
   22547    8.2459613e+00   0.000000e+00   1.290724e+03    201s
   22683    8.2459613e+00   0.000000e+00   1.619545e+03    205s
   22955    8.2459613e+00   0.000000e+00   3.497605e+03    213s
   23055    1.1529625e+01   2.472054e-02   0.000000e+00    218s
   23057    7.3822112e+00   0.000000e+00   0.000000e+00    218s

Root relaxation: objective 7.382211e+00, 23057 iterations, 215.56 seconds

    Nodes    |    Current Node    |     Objective Bounds      |     Work
 Expl Unexpl |  Obj  Depth IntInf | Incumbent    BestBd   Gap | It/Node Time

     0     0    7.38221    0   60   23.98881    7.38221  69.2%     -  217s
     0     0    7.40341    0   60   23.98881    7.40341  69.1%     -  232s
H    0     0                      12.3685590    7.40341  40.1%     -  248s
     0     0    7.44721    0   60   12.36856    7.44721  39.8%     -  262s
     0     0    7.49597    0   60   12.36856    7.49597  39.4%     -  272s
     0     0    7.53288    0   60   12.36856    7.53288  39.1%     -  285s
     0     0    7.53750    0   60   12.36856    7.53750  39.1%     -  303s
     0     0    7.58428    0   60   12.36856    7.58428  38.7%     -  317s
     0     0    7.60516    0   60   12.36856    7.60516  38.5%     -  331s
     0     0    7.61032    0   60   12.36856    7.61032  38.5%     -  369s
     0     0    7.64707    0   60   12.36856    7.64707  38.2%     -  383s
     0     0    7.65649    0   60   12.36856    7.65649  38.1%     -  395s
     0     0    7.68056    0   60   12.36856    7.68056  37.9%     -  417s
     0     0    7.71105    0   60   12.36856    7.71105  37.7%     -  430s
     0     0    7.76413    0   60   12.36856    7.76413  37.2%     -  453s
     0     0    7.83787    0   60   12.36856    7.83787  36.6%     -  474s
     0     0    7.85465    0   60   12.36856    7.85465  36.5%     -  498s
     0     0    7.86256    0   60   12.36856    7.86256  36.4%     -  515s
     0     0    7.92708    0   60   12.36856    7.92708  35.9%     -  530s
     0     0    7.95492    0   60   12.36856    7.95492  35.7%     -  571s
     0     0    7.99966    0   60   12.36856    7.99966  35.3%     -  596s
     0     0    8.01838    0   60   12.36856    8.01838  35.2%     -  611s
     0     0    8.02310    0   60   12.36856    8.02310  35.1%     -  637s
     0     0    8.03776    0   60   12.36856    8.03776  35.0%     -  654s
     0     0    8.05358    0   60   12.36856    8.05358  34.9%     -  679s
     0     0    8.07663    0   60   12.36856    8.07663  34.7%     -  700s
     0     0    8.07769    0   60   12.36856    8.07769  34.7%     -  725s
     0     0    8.09412    0   60   12.36856    8.09412  34.6%     -  739s
     0     0    8.09823    0   60   12.36856    8.09823  34.5%     -  770s
     0     0    8.11734    0   60   12.36856    8.11734  34.4%     -  797s
     0     0    8.12404    0   60   12.36856    8.12404  34.3%     -  824s
     0     0    8.13964    0   60   12.36856    8.13964  34.2%     -  849s
     0     0    8.15821    0   60   12.36856    8.15821  34.0%     -  871s
     0     0    8.17205    0   60   12.36856    8.17205  33.9%     -  897s
     0     0    8.18392    0   60   12.36856    8.18392  33.8%     -  913s
     0     0    8.19369    0   60   12.36856    8.19369  33.8%     -  929s
     0     0    8.19757    0   60   12.36856    8.19757  33.7%     -  956s
     0     0    8.21028    0   60   12.36856    8.21028  33.6%     -  983s
     0     0    8.21104    0   60   12.36856    8.21104  33.6%     - 1011s
     0     0    8.23929    0   60   12.36856    8.23929  33.4%     - 1041s
     0     0    8.24171    0   60   12.36856    8.24171  33.4%     - 1065s
     0     0    8.27273    0   60   12.36856    8.27273  33.1%     - 1092s
     0     0    8.29218    0   60   12.36856    8.29218  33.0%     - 1118s
     0     0    8.29245    0   60   12.36856    8.29245  33.0%     - 1146s
     0     0    8.30214    0   60   12.36856    8.30214  32.9%     - 1162s
     0     0    8.30272    0   60   12.36856    8.30272  32.9%     - 1190s
     0     0    8.31895    0   60   12.36856    8.31895  32.7%     - 1221s
     0     0    8.32264    0   60   12.36856    8.32264  32.7%     - 1252s
     0     0    8.33602    0   60   12.36856    8.33602  32.6%     - 1273s
     0     0    8.33650    0   60   12.36856    8.33650  32.6%     - 1302s
     0     0    8.34813    0   60   12.36856    8.34813  32.5%     - 1319s
     0     0    8.34938    0   60   12.36856    8.34938  32.5%     - 1355s
     0     0    8.37765    0   60   12.36856    8.37765  32.3%     - 1385s
     0     0    8.40891    0   60   12.36856    8.40891  32.0%     - 1405s
     0     0    8.41949    0   60   12.36856    8.41949  31.9%     - 1435s
     0     0    8.43010    0   60   12.36856    8.43010  31.8%     - 1459s
     0     0    8.43438    0   60   12.36856    8.43438  31.8%     - 1485s
     0     0    8.47220    0   60   12.36856    8.47220  31.5%     - 1513s
     0     0    8.50603    0   60   12.36856    8.50603  31.2%     - 1544s
     0     0    8.52064    0   60   12.36856    8.52064  31.1%     - 1573s
     0     0    8.55112    0   60   12.36856    8.55112  30.9%     - 1602s
     0     0    8.55220    0   60   12.36856    8.55220  30.9%     - 1636s
     0     0    8.55993    0   60   12.36856    8.55993  30.8%     - 1668s
     0     0    8.56034    0   60   12.36856    8.56034  30.8%     - 1697s
     0     0    8.59180    0   60   12.36856    8.59180  30.5%     - 1716s
     0     0    8.59811    0   60   12.36856    8.59811  30.5%     - 1763s
     0     0    8.59834    0   60   12.36856    8.59834  30.5%     - 1793s
     0     0    8.62188    0   60   12.36856    8.62188  30.3%     - 1812s
     0     0    8.62315    0   60   12.36856    8.62315  30.3%     - 1843s
     0     0    8.63505    0   60   12.36856    8.63505  30.2%     - 1880s
     0     0    8.63632    0   60   12.36856    8.63632  30.2%     - 1915s
     0     0    8.64760    0   60   12.36856    8.64760  30.1%     - 1953s
     0     0    8.64854    0   60   12.36856    8.64854  30.1%     - 1992s
     0     0    8.66298    0   60   12.36856    8.66298  30.0%     - 2018s
     0     0    8.66373    0   60   12.36856    8.66373  30.0%     - 2053s
     0     0    8.67929    0   60   12.36856    8.67929  29.8%     - 2075s
     0     0    8.68957    0   60   12.36856    8.68957  29.7%     - 2111s
     0     0    8.70231    0   60   12.36856    8.70231  29.6%     - 2131s
     0     0    8.70794    0   60   12.36856    8.70794  29.6%     - 2165s
     0     0    8.71394    0   60   12.36856    8.71394  29.5%     - 2187s
     0     0    8.73666    0   60   12.36856    8.73666  29.4%     - 2211s
     0     0    8.74444    0   60   12.36856    8.74444  29.3%     - 2248s
     0     0    8.74451    0   60   12.36856    8.74451  29.3%     - 2275s
     0     0    8.75138    0   60   12.36856    8.75138  29.2%     - 2308s
     0     0    8.75369    0   60   12.36856    8.75369  29.2%     - 2353s
     0     0    8.76539    0   60   12.36856    8.76539  29.1%     - 2390s
     0     0    8.76643    0   60   12.36856    8.76643  29.1%     - 2438s
     0     0    8.79724    0   60   12.36856    8.79724  28.9%     - 2477s
     0     0    8.80533    0   60   12.36856    8.80533  28.8%     - 2523s
     0     0    8.83305    0   60   12.36856    8.83305  28.6%     - 2563s
     0     0    8.83334    0   60   12.36856    8.83334  28.6%     - 2604s
     0     0    8.83363    0   60   12.36856    8.83363  28.6%     - 2655s
     0     0    8.84293    0   60   12.36856    8.84293  28.5%     - 2681s
     0     0    8.84988    0   60   12.36856    8.84988  28.4%     - 2721s
     0     0    8.86892    0   60   12.36856    8.86892  28.3%     - 2765s
     0     0    8.87307    0   60   12.36856    8.87307  28.3%     - 2835s
     0     0    8.88691    0   60   12.36856    8.88691  28.1%     - 2886s
     0     0    8.90404    0   60   12.36856    8.90404  28.0%     - 2936s
     0     0    8.91400    0   60   12.36856    8.91400  27.9%     - 2976s
     0     0    8.91410    0   60   12.36856    8.91410  27.9%     - 3017s
     0     0    8.93267    0   60   12.36856    8.93267  27.8%     - 3059s
     0     0    8.93271    0   60   12.36856    8.93271  27.8%     - 3107s
     0     0    8.94077    0   60   12.36856    8.94077  27.7%     - 3144s
     0     0    8.94088    0   60   12.36856    8.94088  27.7%     - 3202s
     0     0    8.95047    0   60   12.36856    8.95047  27.6%     - 3244s
     0     0    8.95075    0   60   12.36856    8.95075  27.6%     - 3305s
     0     0    8.95723    0   60   12.36856    8.95723  27.6%     - 3358s
     0     0    8.95731    0   60   12.36856    8.95731  27.6%     - 3411s
     0     0    8.96394    0   60   12.36856    8.96394  27.5%     - 3451s
     0     0    8.97000    0   60   12.36856    8.97000  27.5%     - 3516s
     0     0    8.97000    0   60   12.36856    8.97000  27.5%     - 3545s
     0     0    8.97324    0   60   12.36856    8.97324  27.5%     - 3572s
     0     0    8.97920    0   60   12.36856    8.97920  27.4%     - 3608s
     0     0    8.97944    0   60   12.36856    8.97944  27.4%     - 3642s
     0     0    8.98279    0   60   12.36856    8.98279  27.4%     - 3677s
     0     0    8.98358    0   60   12.36856    8.98358  27.4%     - 3718s
     0     0    8.98386    0   60   12.36856    8.98386  27.4%     - 3766s
     0     0    8.98392    0   60   12.36856    8.98392  27.4%     - 3813s
     0     0    8.99349    0   60   12.36856    8.99349  27.3%     - 3849s
     0     0    8.99372    0   60   12.36856    8.99372  27.3%     - 3890s
     0     0    9.00309    0   60   12.36856    9.00309  27.2%     - 3948s
     0     0    9.00344    0   60   12.36856    9.00344  27.2%     - 3981s
     0     0    9.00345    0   60   12.36856    9.00345  27.2%     - 4050s
     0     0    9.01094    0   60   12.36856    9.01094  27.1%     - 4096s
     0     0    9.01117    0   60   12.36856    9.01117  27.1%     - 4144s
     0     0    9.01130    0   60   12.36856    9.01130  27.1%     - 4181s
     0     0    9.02158    0   60   12.36856    9.02158  27.1%     - 4216s
     0     0    9.02300    0   60   12.36856    9.02300  27.0%     - 4292s
     0     0    9.02973    0   60   12.36856    9.02973  27.0%     - 4354s
     0     0    9.03147    0   60   12.36856    9.03147  27.0%     - 4414s
     0     0    9.03424    0   60   12.36856    9.03424  27.0%     - 4492s
     0     0    9.03424    0   60   12.36856    9.03424  27.0%     - 4530s
     0     0    9.03653    0   60   12.36856    9.03653  26.9%     - 4563s
     0     0    9.03700    0   60   12.36856    9.03700  26.9%     - 4640s
     0     0    9.03702    0   60   12.36856    9.03702  26.9%     - 4671s
     0     0    9.04019    0   60   12.36856    9.04019  26.9%     - 4730s
     0     0    9.04029    0   60   12.36856    9.04029  26.9%     - 4788s
     0     0    9.04185    0   60   12.36856    9.04185  26.9%     - 4838s
     0     0   10.24808    0   33   12.36856   10.24808  17.1%     - 5034s
     0     2   10.25825    0   33   12.36856   10.25825  17.1%     - 5112s
     1     3   12.30680    1    9   12.36856   11.88818  3.88%  69.0 5117s
     3     3   12.35802    2    6   12.36856   11.88818  3.88%  27.0 5135s
     6     2     cutoff    4        12.36856   11.88818  3.88%  16.2 5140s
     8     0     cutoff    1        12.36856   12.36856  0.00%  17.4 5147s

Cutting planes:
  Network: 36

Explored 9 nodes (25794 simplex iterations) in 5147.66 seconds
Thread count was 1 (of 24 available processors)

Solution count 2: 12.3686 23.9888 

Optimal solution found (tolerance 1.00e-04)
Best objective 1.236855896182e+01, best bound 1.236855896182e+01, gap 0.0000%
